(declare-datatype list (par (a) ((Nil) (Cons (Cons_0 a) (Cons_1 (list a))))))
(declare-datatype tree (par (a) ((Leaf) (Node (Node_0 (tree a)) (Node_1 a) (Node_2 (tree a))))))
(declare-fun in_set_tree (par (a) (a (tree a)) Bool))
(assert (par (a) (forall ((x a)) (not (in_set_tree a x (Leaf a))))))
(assert (par (a) (forall ((x a) (l (tree a)) (y a) (r (tree a))) (= (in_set_tree a x (Node a l y r)) (or (= x y) (in_set_tree a x l) (in_set_tree a x r))))))
(declare-fun less (par (a) (a a) Bool))
(declare-fun append (par (a) ((list a) (list a)) (list a)))
(assert (par (a) (forall ((ys (list a))) (= (append a (Nil a) ys) ys))))
(assert (par (a) (forall ((x a) (xs (list a)) (ys (list a))) (= (append a (Cons a x xs) ys) (Cons a x (append a xs ys))))))
(declare-fun sorted_s (par (a) ((list a)) Bool))
(assert (par (a) (sorted_s a (Nil a))))
(assert (par (a) (forall ((x a)) (sorted_s a (Cons a x (Nil a))))))
(assert (par (a) (forall ((x a) (y a) (zs (list a))) (= (sorted_s a (Cons a x (Cons a y zs))) (and (less a x y) (sorted_s a (Cons a y zs)))))))
(declare-fun inorder (par (a) ((tree a)) (list a)))
(assert (par (a) (= (inorder a (Leaf a)) (Nil a))))
(assert (par (a) (forall ((l (tree a)) (x a) (r (tree a))) (= (inorder a (Node a l x r)) (append a (inorder a l) (append a (Cons a x (Nil a)) (inorder a r)))))))
(declare-fun bst (par (a) ((tree a)) Bool))
(assert (par (a) (bst a (Leaf a))))
(assert (par (a) (forall ((l (tree a)) (x a) (r (tree a))) (= (bst a (Node a l x r))
  (and (forall ((y a)) (=> (in_set_tree a y l) (less a y x))) (forall ((y a)) (=> (in_set_tree a y r) (less a x y))) (bst a l) (bst a r))))))

; bst(t) = sorted(inorder(t))
(assert-not (par (a) (forall ((t (tree a))) (= (bst a t) (sorted_s a (inorder a t))))))
